*SENSE:Maximize
NAME          MODEL
ROWS
 N  OBJ
 L  C0000000
 L  C0000001
 G  C0000002
 G  C0000003
 G  C0000004
 G  C0000005
 G  C0000006
 G  C0000007
 G  C0000008
 G  C0000009
 G  C0000010
 G  C0000011
 G  C0000012
 G  C0000013
 G  C0000014
 G  C0000015
 G  C0000016
 G  C0000017
 G  C0000018
 G  C0000019
 G  C0000020
 G  C0000021
 G  C0000022
 G  C0000023
 G  C0000024
 G  C0000025
 G  C0000026
 G  C0000027
 G  C0000028
 G  C0000029
 G  C0000030
 G  C0000031
 G  C0000032
 G  C0000033
 G  C0000034
 G  C0000035
 G  C0000036
 G  C0000037
 G  C0000038
 G  C0000039
 G  C0000040
 G  C0000041
 G  C0000042
 G  C0000043
 G  C0000044
 G  C0000045
 G  C0000046
 G  C0000047
 G  C0000048
 G  C0000049
 G  C0000050
 G  C0000051
 G  C0000052
 G  C0000053
 G  C0000054
 G  C0000055
 G  C0000056
 G  C0000057
 G  C0000058
 G  C0000059
 G  C0000060
 G  C0000061
 G  C0000062
 G  C0000063
 G  C0000064
 G  C0000065
 G  C0000066
 G  C0000067
 G  C0000068
 G  C0000069
 G  C0000070
 G  C0000071
 G  C0000072
 G  C0000073
 G  C0000074
 G  C0000075
 G  C0000076
 G  C0000077
 G  C0000078
 G  C0000079
 G  C0000080
 G  C0000081
 G  C0000082
 G  C0000083
 G  C0000084
 G  C0000085
 G  C0000086
 G  C0000087
 G  C0000088
 G  C0000089
 G  C0000090
 G  C0000091
 G  C0000092
 G  C0000093
 G  C0000094
 G  C0000095
 G  C0000096
 G  C0000097
 G  C0000098
 G  C0000099
 G  C0000100
 G  C0000101
 G  C0000102
 G  C0000103
 G  C0000104
 G  C0000105
 G  C0000106
 G  C0000107
 G  C0000108
 G  C0000109
 G  C0000110
 G  C0000111
 G  C0000112
 G  C0000113
 G  C0000114
 G  C0000115
 G  C0000116
 G  C0000117
 G  C0000118
 G  C0000119
 G  C0000120
 G  C0000121
 G  C0000122
 G  C0000123
 G  C0000124
 G  C0000125
 G  C0000126
 G  C0000127
 G  C0000128
 G  C0000129
 G  C0000130
 G  C0000131
 G  C0000132
 G  C0000133
 G  C0000134
 G  C0000135
 G  C0000136
 G  C0000137
 G  C0000138
 G  C0000139
 G  C0000140
 G  C0000141
 G  C0000142
 G  C0000143
 G  C0000144
 G  C0000145
 G  C0000146
 G  C0000147
 G  C0000148
 G  C0000149
 G  C0000150
 G  C0000151
 G  C0000152
 G  C0000153
 G  C0000154
 G  C0000155
 G  C0000156
 G  C0000157
 G  C0000158
 G  C0000159
 G  C0000160
 G  C0000161
 G  C0000162
 G  C0000163
 G  C0000164
 G  C0000165
 G  C0000166
 G  C0000167
 G  C0000168
 G  C0000169
 G  C0000170
 G  C0000171
 G  C0000172
 G  C0000173
 G  C0000174
 G  C0000175
 G  C0000176
 G  C0000177
 G  C0000178
 G  C0000179
 G  C0000180
 G  C0000181
 G  C0000182
 G  C0000183
 G  C0000184
 G  C0000185
 G  C0000186
 G  C0000187
 G  C0000188
 G  C0000189
 G  C0000190
 G  C0000191
 G  C0000192
 G  C0000193
 G  C0000194
 G  C0000195
 G  C0000196
 G  C0000197
 G  C0000198
 G  C0000199
 G  C0000200
 G  C0000201
 G  C0000202
 G  C0000203
 G  C0000204
 G  C0000205
 G  C0000206
 G  C0000207
 G  C0000208
 G  C0000209
 G  C0000210
 G  C0000211
 G  C0000212
 G  C0000213
 G  C0000214
 G  C0000215
 G  C0000216
 G  C0000217
 G  C0000218
 G  C0000219
 G  C0000220
 G  C0000221
 G  C0000222
 G  C0000223
 G  C0000224
 G  C0000225
 G  C0000226
 G  C0000227
 G  C0000228
 G  C0000229
 G  C0000230
 G  C0000231
 G  C0000232
 G  C0000233
 G  C0000234
 G  C0000235
 G  C0000236
 G  C0000237
 G  C0000238
 G  C0000239
 G  C0000240
 G  C0000241
 G  C0000242
 G  C0000243
 G  C0000244
 G  C0000245
 G  C0000246
 G  C0000247
 G  C0000248
 G  C0000249
 G  C0000250
 G  C0000251
 G  C0000252
 G  C0000253
 G  C0000254
 G  C0000255
 G  C0000256
 G  C0000257
 G  C0000258
 G  C0000259
 G  C0000260
 G  C0000261
 G  C0000262
 G  C0000263
 G  C0000264
 G  C0000265
 G  C0000266
 G  C0000267
 G  C0000268
 G  C0000269
 G  C0000270
 G  C0000271
 G  C0000272
 G  C0000273
 G  C0000274
 G  C0000275
 G  C0000276
 G  C0000277
 G  C0000278
 G  C0000279
 G  C0000280
 G  C0000281
 G  C0000282
 G  C0000283
 G  C0000284
 G  C0000285
 G  C0000286
 G  C0000287
 G  C0000288
 G  C0000289
 G  C0000290
 G  C0000291
 G  C0000292
 G  C0000293
 G  C0000294
 G  C0000295
 G  C0000296
 G  C0000297
 G  C0000298
 G  C0000299
 G  C0000300
 G  C0000301
 G  C0000302
 G  C0000303
 G  C0000304
 G  C0000305
 G  C0000306
 G  C0000307
 G  C0000308
 G  C0000309
 G  C0000310
 G  C0000311
 G  C0000312
 G  C0000313
 G  C0000314
 G  C0000315
 G  C0000316
 G  C0000317
 G  C0000318
 G  C0000319
 G  C0000320
 G  C0000321
 G  C0000322
 G  C0000323
 G  C0000324
 G  C0000325
 G  C0000326
 G  C0000327
 G  C0000328
 G  C0000329
 G  C0000330
 G  C0000331
 G  C0000332
 G  C0000333
 G  C0000334
 G  C0000335
 G  C0000336
 G  C0000337
 G  C0000338
 G  C0000339
 G  C0000340
 G  C0000341
 G  C0000342
 G  C0000343
 G  C0000344
 G  C0000345
 G  C0000346
 G  C0000347
 G  C0000348
 G  C0000349
 G  C0000350
 G  C0000351
 G  C0000352
 G  C0000353
 G  C0000354
 G  C0000355
 G  C0000356
 G  C0000357
 G  C0000358
 G  C0000359
 G  C0000360
 G  C0000361
 G  C0000362
 G  C0000363
 G  C0000364
 G  C0000365
 G  C0000366
 G  C0000367
 G  C0000368
 G  C0000369
 G  C0000370
 G  C0000371
 G  C0000372
 G  C0000373
 G  C0000374
 G  C0000375
 G  C0000376
 G  C0000377
 G  C0000378
COLUMNS
    X0000000  C0000000   2.000000000000e+00
    X0000000  C0000001   4.000000000000e+00
    X0000000  C0000002   1.000000000000e+00
    X0000000  OBJ        1.000000000000e+00
    X0000001  C0000000   2.000000000000e+00
    X0000001  C0000001  -5.000000000000e+00
    X0000001  C0000003   1.000000000000e+00
    X0000001  C0000004   1.000000000000e+00
    X0000001  C0000005   1.000000000000e+00
    X0000001  C0000006   1.000000000000e+00
    X0000001  C0000007   1.000000000000e+00
    X0000001  C0000008   1.000000000000e+00
    X0000001  C0000009   1.000000000000e+00
    X0000001  C0000010   1.000000000000e+00
    X0000001  C0000011   1.000000000000e+00
    X0000001  C0000012   1.000000000000e+00
    X0000001  C0000013   1.000000000000e+00
    X0000001  C0000014   1.000000000000e+00
    X0000001  C0000015   1.000000000000e+00
    X0000001  C0000016   1.000000000000e+00
    X0000001  C0000017   1.000000000000e+00
    X0000001  C0000018   1.000000000000e+00
    X0000001  C0000019   1.000000000000e+00
    X0000001  C0000020   1.000000000000e+00
    X0000001  C0000021   1.000000000000e+00
    X0000001  C0000022   1.000000000000e+00
    X0000001  C0000023   1.000000000000e+00
    X0000001  C0000024   1.000000000000e+00
    X0000001  C0000025   1.000000000000e+00
    X0000001  C0000026   1.000000000000e+00
    X0000001  C0000027   1.000000000000e+00
    X0000001  C0000028   1.000000000000e+00
    X0000001  C0000029   1.000000000000e+00
    X0000001  C0000030   1.000000000000e+00
    X0000001  C0000031   1.000000000000e+00
    X0000001  C0000032   1.000000000000e+00
    X0000001  C0000033   1.000000000000e+00
    X0000001  C0000034   1.000000000000e+00
    X0000001  C0000035   1.000000000000e+00
    X0000001  C0000036   1.000000000000e+00
    X0000001  C0000037   1.000000000000e+00
    X0000001  C0000038   1.000000000000e+00
    X0000001  C0000039   1.000000000000e+00
    X0000001  C0000040   1.000000000000e+00
    X0000001  C0000041   1.000000000000e+00
    X0000001  C0000042   1.000000000000e+00
    X0000001  C0000043   1.000000000000e+00
    X0000001  C0000044   1.000000000000e+00
    X0000001  C0000045   1.000000000000e+00
    X0000001  C0000046   1.000000000000e+00
    X0000001  C0000047   1.000000000000e+00
    X0000001  C0000048   1.000000000000e+00
    X0000001  C0000049   1.000000000000e+00
    X0000001  C0000050   1.000000000000e+00
    X0000001  C0000051   1.000000000000e+00
    X0000001  C0000052   1.000000000000e+00
    X0000001  C0000053   1.000000000000e+00
    X0000001  C0000054   1.000000000000e+00
    X0000001  C0000055   1.000000000000e+00
    X0000001  C0000056   1.000000000000e+00
    X0000001  C0000057   1.000000000000e+00
    X0000001  C0000058   1.000000000000e+00
    X0000001  C0000059   1.000000000000e+00
    X0000001  C0000060   1.000000000000e+00
    X0000001  C0000061   1.000000000000e+00
    X0000001  C0000062   1.000000000000e+00
    X0000001  C0000063   1.000000000000e+00
    X0000001  C0000064   1.000000000000e+00
    X0000001  C0000065   1.000000000000e+00
    X0000001  C0000066   1.000000000000e+00
    X0000001  C0000067   1.000000000000e+00
    X0000001  C0000068   1.000000000000e+00
    X0000001  C0000069   1.000000000000e+00
    X0000001  C0000070   1.000000000000e+00
    X0000001  C0000071   1.000000000000e+00
    X0000001  C0000072   1.000000000000e+00
    X0000001  C0000073   1.000000000000e+00
    X0000001  C0000074   1.000000000000e+00
    X0000001  C0000075   1.000000000000e+00
    X0000001  C0000076   1.000000000000e+00
    X0000001  C0000077   1.000000000000e+00
    X0000001  C0000078   1.000000000000e+00
    X0000001  C0000079   1.000000000000e+00
    X0000001  C0000080   1.000000000000e+00
    X0000001  C0000081   1.000000000000e+00
    X0000001  C0000082   1.000000000000e+00
    X0000001  C0000083   1.000000000000e+00
    X0000001  C0000084   1.000000000000e+00
    X0000001  C0000085   1.000000000000e+00
    X0000001  C0000086   1.000000000000e+00
    X0000001  C0000087   1.000000000000e+00
    X0000001  C0000088   1.000000000000e+00
    X0000001  C0000089   1.000000000000e+00
    X0000001  C0000090   1.000000000000e+00
    X0000001  C0000091   1.000000000000e+00
    X0000001  C0000092   1.000000000000e+00
    X0000001  C0000093   1.000000000000e+00
    X0000001  C0000094   1.000000000000e+00
    X0000001  C0000095   1.000000000000e+00
    X0000001  C0000096   1.000000000000e+00
    X0000001  C0000097   1.000000000000e+00
    X0000001  C0000098   1.000000000000e+00
    X0000001  C0000099   1.000000000000e+00
    X0000001  C0000100   1.000000000000e+00
    X0000001  C0000101   1.000000000000e+00
    X0000001  C0000102   1.000000000000e+00
    X0000001  C0000103   1.000000000000e+00
    X0000001  C0000104   1.000000000000e+00
    X0000001  C0000105   1.000000000000e+00
    X0000001  C0000106   1.000000000000e+00
    X0000001  C0000107   1.000000000000e+00
    X0000001  C0000108   1.000000000000e+00
    X0000001  C0000109   1.000000000000e+00
    X0000001  C0000110   1.000000000000e+00
    X0000001  C0000111   1.000000000000e+00
    X0000001  C0000112   1.000000000000e+00
    X0000001  C0000113   1.000000000000e+00
    X0000001  C0000114   1.000000000000e+00
    X0000001  C0000115   1.000000000000e+00
    X0000001  C0000116   1.000000000000e+00
    X0000001  C0000117   1.000000000000e+00
    X0000001  C0000118   1.000000000000e+00
    X0000001  C0000119   1.000000000000e+00
    X0000001  C0000120   1.000000000000e+00
    X0000001  C0000121   1.000000000000e+00
    X0000001  C0000122   1.000000000000e+00
    X0000001  C0000123   1.000000000000e+00
    X0000001  C0000124   1.000000000000e+00
    X0000001  C0000125   1.000000000000e+00
    X0000001  C0000126   1.000000000000e+00
    X0000001  C0000127   1.000000000000e+00
    X0000001  C0000128   1.000000000000e+00
    X0000001  C0000129   1.000000000000e+00
    X0000001  C0000130   1.000000000000e+00
    X0000001  C0000131   1.000000000000e+00
    X0000001  C0000132   1.000000000000e+00
    X0000001  C0000133   1.000000000000e+00
    X0000001  C0000134   1.000000000000e+00
    X0000001  C0000135   1.000000000000e+00
    X0000001  C0000136   1.000000000000e+00
    X0000001  C0000137   1.000000000000e+00
    X0000001  C0000138   1.000000000000e+00
    X0000001  C0000139   1.000000000000e+00
    X0000001  C0000140   1.000000000000e+00
    X0000001  C0000141   1.000000000000e+00
    X0000001  C0000142   1.000000000000e+00
    X0000001  C0000143   1.000000000000e+00
    X0000001  C0000144   1.000000000000e+00
    X0000001  C0000145   1.000000000000e+00
    X0000001  C0000146   1.000000000000e+00
    X0000001  C0000147   1.000000000000e+00
    X0000001  C0000148   1.000000000000e+00
    X0000001  C0000149   1.000000000000e+00
    X0000001  C0000150   1.000000000000e+00
    X0000001  C0000151   1.000000000000e+00
    X0000001  C0000152   1.000000000000e+00
    X0000001  C0000153   1.000000000000e+00
    X0000001  C0000154   1.000000000000e+00
    X0000001  C0000155   1.000000000000e+00
    X0000001  C0000156   1.000000000000e+00
    X0000001  C0000157   1.000000000000e+00
    X0000001  C0000158   1.000000000000e+00
    X0000001  C0000159   1.000000000000e+00
    X0000001  C0000160   1.000000000000e+00
    X0000001  C0000161   1.000000000000e+00
    X0000001  C0000162   1.000000000000e+00
    X0000001  C0000163   1.000000000000e+00
    X0000001  C0000164   1.000000000000e+00
    X0000001  C0000165   1.000000000000e+00
    X0000001  C0000166   1.000000000000e+00
    X0000001  C0000167   1.000000000000e+00
    X0000001  C0000168   1.000000000000e+00
    X0000001  C0000169   1.000000000000e+00
    X0000001  C0000170   1.000000000000e+00
    X0000001  C0000171   1.000000000000e+00
    X0000001  C0000172   1.000000000000e+00
    X0000001  C0000173   1.000000000000e+00
    X0000001  C0000174   1.000000000000e+00
    X0000001  C0000175   1.000000000000e+00
    X0000001  C0000176   1.000000000000e+00
    X0000001  C0000177   1.000000000000e+00
    X0000001  C0000178   1.000000000000e+00
    X0000001  C0000179   1.000000000000e+00
    X0000001  C0000180   1.000000000000e+00
    X0000001  C0000181   1.000000000000e+00
    X0000001  C0000182   1.000000000000e+00
    X0000001  C0000183   1.000000000000e+00
    X0000001  C0000184   1.000000000000e+00
    X0000001  C0000185   1.000000000000e+00
    X0000001  C0000186   1.000000000000e+00
    X0000001  C0000187   1.000000000000e+00
    X0000001  C0000188   1.000000000000e+00
    X0000001  C0000189   1.000000000000e+00
    X0000001  C0000190   1.000000000000e+00
    X0000001  C0000191   1.000000000000e+00
    X0000001  C0000192   1.000000000000e+00
    X0000001  C0000193   1.000000000000e+00
    X0000001  C0000194   1.000000000000e+00
    X0000001  C0000195   1.000000000000e+00
    X0000001  C0000196   1.000000000000e+00
    X0000001  C0000197   1.000000000000e+00
    X0000001  C0000198   1.000000000000e+00
    X0000001  C0000199   1.000000000000e+00
    X0000001  C0000200   1.000000000000e+00
    X0000001  C0000201   1.000000000000e+00
    X0000001  C0000202   1.000000000000e+00
    X0000001  C0000203   1.000000000000e+00
    X0000001  C0000204   1.000000000000e+00
    X0000001  C0000205   1.000000000000e+00
    X0000001  C0000206   1.000000000000e+00
    X0000001  C0000207   1.000000000000e+00
    X0000001  C0000208   1.000000000000e+00
    X0000001  C0000209   1.000000000000e+00
    X0000001  C0000210   1.000000000000e+00
    X0000001  C0000211   1.000000000000e+00
    X0000001  C0000212   1.000000000000e+00
    X0000001  C0000213   1.000000000000e+00
    X0000001  C0000214   1.000000000000e+00
    X0000001  C0000215   1.000000000000e+00
    X0000001  C0000216   1.000000000000e+00
    X0000001  C0000217   1.000000000000e+00
    X0000001  C0000218   1.000000000000e+00
    X0000001  C0000219   1.000000000000e+00
    X0000001  C0000220   1.000000000000e+00
    X0000001  C0000221   1.000000000000e+00
    X0000001  C0000222   1.000000000000e+00
    X0000001  C0000223   1.000000000000e+00
    X0000001  C0000224   1.000000000000e+00
    X0000001  C0000225   1.000000000000e+00
    X0000001  C0000226   1.000000000000e+00
    X0000001  C0000227   1.000000000000e+00
    X0000001  C0000228   1.000000000000e+00
    X0000001  C0000229   1.000000000000e+00
    X0000001  C0000230   1.000000000000e+00
    X0000001  C0000231   1.000000000000e+00
    X0000001  C0000232   1.000000000000e+00
    X0000001  C0000233   1.000000000000e+00
    X0000001  C0000234   1.000000000000e+00
    X0000001  C0000235   1.000000000000e+00
    X0000001  C0000236   1.000000000000e+00
    X0000001  C0000237   1.000000000000e+00
    X0000001  C0000238   1.000000000000e+00
    X0000001  C0000239   1.000000000000e+00
    X0000001  C0000240   1.000000000000e+00
    X0000001  C0000241   1.000000000000e+00
    X0000001  C0000242   1.000000000000e+00
    X0000001  C0000243   1.000000000000e+00
    X0000001  C0000244   1.000000000000e+00
    X0000001  C0000245   1.000000000000e+00
    X0000001  C0000246   1.000000000000e+00
    X0000001  C0000247   1.000000000000e+00
    X0000001  C0000248   1.000000000000e+00
    X0000001  C0000249   1.000000000000e+00
    X0000001  C0000250   1.000000000000e+00
    X0000001  C0000251   1.000000000000e+00
    X0000001  C0000252   1.000000000000e+00
    X0000001  C0000253   1.000000000000e+00
    X0000001  C0000254   1.000000000000e+00
    X0000001  C0000255   1.000000000000e+00
    X0000001  C0000256   1.000000000000e+00
    X0000001  C0000257   1.000000000000e+00
    X0000001  C0000258   1.000000000000e+00
    X0000001  C0000259   1.000000000000e+00
    X0000001  C0000260   1.000000000000e+00
    X0000001  C0000261   1.000000000000e+00
    X0000001  C0000262   1.000000000000e+00
    X0000001  C0000263   1.000000000000e+00
    X0000001  C0000264   1.000000000000e+00
    X0000001  C0000265   1.000000000000e+00
    X0000001  C0000266   1.000000000000e+00
    X0000001  C0000267   1.000000000000e+00
    X0000001  C0000268   1.000000000000e+00
    X0000001  C0000269   1.000000000000e+00
    X0000001  C0000270   1.000000000000e+00
    X0000001  C0000271   1.000000000000e+00
    X0000001  C0000272   1.000000000000e+00
    X0000001  C0000273   1.000000000000e+00
    X0000001  C0000274   1.000000000000e+00
    X0000001  C0000275   1.000000000000e+00
    X0000001  C0000276   1.000000000000e+00
    X0000001  C0000277   1.000000000000e+00
    X0000001  C0000278   1.000000000000e+00
    X0000001  C0000279   1.000000000000e+00
    X0000001  C0000280   1.000000000000e+00
    X0000001  C0000281   1.000000000000e+00
    X0000001  C0000282   1.000000000000e+00
    X0000001  C0000283   1.000000000000e+00
    X0000001  C0000284   1.000000000000e+00
    X0000001  C0000285   1.000000000000e+00
    X0000001  C0000286   1.000000000000e+00
    X0000001  C0000287   1.000000000000e+00
    X0000001  C0000288   1.000000000000e+00
    X0000001  C0000289   1.000000000000e+00
    X0000001  C0000290   1.000000000000e+00
    X0000001  C0000291   1.000000000000e+00
    X0000001  C0000292   1.000000000000e+00
    X0000001  C0000293   1.000000000000e+00
    X0000001  C0000294   1.000000000000e+00
    X0000001  C0000295   1.000000000000e+00
    X0000001  C0000296   1.000000000000e+00
    X0000001  C0000297   1.000000000000e+00
    X0000001  C0000298   1.000000000000e+00
    X0000001  C0000299   1.000000000000e+00
    X0000001  C0000300   1.000000000000e+00
    X0000001  C0000301   1.000000000000e+00
    X0000001  C0000302   1.000000000000e+00
    X0000001  C0000303   1.000000000000e+00
    X0000001  C0000304   1.000000000000e+00
    X0000001  C0000305   1.000000000000e+00
    X0000001  C0000306   1.000000000000e+00
    X0000001  C0000307   1.000000000000e+00
    X0000001  C0000308   1.000000000000e+00
    X0000001  C0000309   1.000000000000e+00
    X0000001  C0000310   1.000000000000e+00
    X0000001  C0000311   1.000000000000e+00
    X0000001  C0000312   1.000000000000e+00
    X0000001  C0000313   1.000000000000e+00
    X0000001  C0000314   1.000000000000e+00
    X0000001  C0000315   1.000000000000e+00
    X0000001  C0000316   1.000000000000e+00
    X0000001  C0000317   1.000000000000e+00
    X0000001  C0000318   1.000000000000e+00
    X0000001  C0000319   1.000000000000e+00
    X0000001  C0000320   1.000000000000e+00
    X0000001  C0000321   1.000000000000e+00
    X0000001  C0000322   1.000000000000e+00
    X0000001  C0000323   1.000000000000e+00
    X0000001  C0000324   1.000000000000e+00
    X0000001  C0000325   1.000000000000e+00
    X0000001  C0000326   1.000000000000e+00
    X0000001  C0000327   1.000000000000e+00
    X0000001  C0000328   1.000000000000e+00
    X0000001  C0000329   1.000000000000e+00
    X0000001  C0000330   1.000000000000e+00
    X0000001  C0000331   1.000000000000e+00
    X0000001  C0000332   1.000000000000e+00
    X0000001  C0000333   1.000000000000e+00
    X0000001  C0000334   1.000000000000e+00
    X0000001  C0000335   1.000000000000e+00
    X0000001  C0000336   1.000000000000e+00
    X0000001  C0000337   1.000000000000e+00
    X0000001  C0000338   1.000000000000e+00
    X0000001  C0000339   1.000000000000e+00
    X0000001  C0000340   1.000000000000e+00
    X0000001  C0000341   1.000000000000e+00
    X0000001  C0000342   1.000000000000e+00
    X0000001  C0000343   1.000000000000e+00
    X0000001  C0000344   1.000000000000e+00
    X0000001  C0000345   1.000000000000e+00
    X0000001  C0000346   1.000000000000e+00
    X0000001  C0000347   1.000000000000e+00
    X0000001  C0000348   1.000000000000e+00
    X0000001  C0000349   1.000000000000e+00
    X0000001  C0000350   1.000000000000e+00
    X0000001  C0000351   1.000000000000e+00
    X0000001  C0000352   1.000000000000e+00
    X0000001  C0000353   1.000000000000e+00
    X0000001  C0000354   1.000000000000e+00
    X0000001  C0000355   1.000000000000e+00
    X0000001  C0000356   1.000000000000e+00
    X0000001  C0000357   1.000000000000e+00
    X0000001  C0000358   1.000000000000e+00
    X0000001  C0000359   1.000000000000e+00
    X0000001  C0000360   1.000000000000e+00
    X0000001  C0000361   1.000000000000e+00
    X0000001  C0000362   1.000000000000e+00
    X0000001  C0000363   1.000000000000e+00
    X0000001  C0000364   1.000000000000e+00
    X0000001  C0000365   1.000000000000e+00
    X0000001  C0000366   1.000000000000e+00
    X0000001  C0000367   1.000000000000e+00
    X0000001  C0000368   1.000000000000e+00
    X0000001  C0000369   1.000000000000e+00
    X0000001  C0000370   1.000000000000e+00
    X0000001  C0000371   1.000000000000e+00
    X0000001  C0000372   1.000000000000e+00
    X0000001  C0000373   1.000000000000e+00
    X0000001  C0000374   1.000000000000e+00
    X0000001  C0000375   1.000000000000e+00
    X0000001  C0000376   1.000000000000e+00
    X0000001  C0000377   1.000000000000e+00
    X0000001  C0000378   1.000000000000e+00
    X0000001  OBJ        2.000000000000e+00
RHS
    RHS       C0000000   7.000000000000e+00
    RHS       C0000001   9.000000000000e+00
    RHS       C0000002   0.000000000000e+00
    RHS       C0000003   0.000000000000e+00
    RHS       C0000004   3.000000000000e+00
    RHS       C0000005   3.000000000000e+00
    RHS       C0000006   3.000000000000e+00
    RHS       C0000007   3.000000000000e+00
    RHS       C0000008   3.000000000000e+00
    RHS       C0000009   3.000000000000e+00
    RHS       C0000010   3.000000000000e+00
    RHS       C0000011   3.000000000000e+00
    RHS       C0000012   3.000000000000e+00
    RHS       C0000013   3.000000000000e+00
    RHS       C0000014   3.000000000000e+00
    RHS       C0000015   3.000000000000e+00
    RHS       C0000016   3.000000000000e+00
    RHS       C0000017   3.000000000000e+00
    RHS       C0000018   3.000000000000e+00
    RHS       C0000019   3.000000000000e+00
    RHS       C0000020   3.000000000000e+00
    RHS       C0000021   3.000000000000e+00
    RHS       C0000022   3.000000000000e+00
    RHS       C0000023   3.000000000000e+00
    RHS       C0000024   3.000000000000e+00
    RHS       C0000025   3.000000000000e+00
    RHS       C0000026   3.000000000000e+00
    RHS       C0000027   3.000000000000e+00
    RHS       C0000028   3.000000000000e+00
    RHS       C0000029   3.000000000000e+00
    RHS       C0000030   3.000000000000e+00
    RHS       C0000031   3.000000000000e+00
    RHS       C0000032   3.000000000000e+00
    RHS       C0000033   3.000000000000e+00
    RHS       C0000034   3.000000000000e+00
    RHS       C0000035   3.000000000000e+00
    RHS       C0000036   3.000000000000e+00
    RHS       C0000037   3.000000000000e+00
    RHS       C0000038   3.000000000000e+00
    RHS       C0000039   3.000000000000e+00
    RHS       C0000040   3.000000000000e+00
    RHS       C0000041   3.000000000000e+00
    RHS       C0000042   3.000000000000e+00
    RHS       C0000043   3.000000000000e+00
    RHS       C0000044   3.000000000000e+00
    RHS       C0000045   3.000000000000e+00
    RHS       C0000046   3.000000000000e+00
    RHS       C0000047   3.000000000000e+00
    RHS       C0000048   3.000000000000e+00
    RHS       C0000049   3.000000000000e+00
    RHS       C0000050   3.000000000000e+00
    RHS       C0000051   3.000000000000e+00
    RHS       C0000052   3.000000000000e+00
    RHS       C0000053   3.000000000000e+00
    RHS       C0000054   3.000000000000e+00
    RHS       C0000055   3.000000000000e+00
    RHS       C0000056   3.000000000000e+00
    RHS       C0000057   3.000000000000e+00
    RHS       C0000058   3.000000000000e+00
    RHS       C0000059   3.000000000000e+00
    RHS       C0000060   3.000000000000e+00
    RHS       C0000061   3.000000000000e+00
    RHS       C0000062   3.000000000000e+00
    RHS       C0000063   3.000000000000e+00
    RHS       C0000064   3.000000000000e+00
    RHS       C0000065   3.000000000000e+00
    RHS       C0000066   3.000000000000e+00
    RHS       C0000067   3.000000000000e+00
    RHS       C0000068   3.000000000000e+00
    RHS       C0000069   3.000000000000e+00
    RHS       C0000070   3.000000000000e+00
    RHS       C0000071   3.000000000000e+00
    RHS       C0000072   3.000000000000e+00
    RHS       C0000073   3.000000000000e+00
    RHS       C0000074   3.000000000000e+00
    RHS       C0000075   3.000000000000e+00
    RHS       C0000076   3.000000000000e+00
    RHS       C0000077   3.000000000000e+00
    RHS       C0000078   3.000000000000e+00
    RHS       C0000079   3.000000000000e+00
    RHS       C0000080   3.000000000000e+00
    RHS       C0000081   3.000000000000e+00
    RHS       C0000082   3.000000000000e+00
    RHS       C0000083   3.000000000000e+00
    RHS       C0000084   3.000000000000e+00
    RHS       C0000085   3.000000000000e+00
    RHS       C0000086   3.000000000000e+00
    RHS       C0000087   3.000000000000e+00
    RHS       C0000088   3.000000000000e+00
    RHS       C0000089   3.000000000000e+00
    RHS       C0000090   3.000000000000e+00
    RHS       C0000091   3.000000000000e+00
    RHS       C0000092   3.000000000000e+00
    RHS       C0000093   3.000000000000e+00
    RHS       C0000094   3.000000000000e+00
    RHS       C0000095   3.000000000000e+00
    RHS       C0000096   3.000000000000e+00
    RHS       C0000097   3.000000000000e+00
    RHS       C0000098   3.000000000000e+00
    RHS       C0000099   3.000000000000e+00
    RHS       C0000100   3.000000000000e+00
    RHS       C0000101   3.000000000000e+00
    RHS       C0000102   3.000000000000e+00
    RHS       C0000103   3.000000000000e+00
    RHS       C0000104   3.000000000000e+00
    RHS       C0000105   3.000000000000e+00
    RHS       C0000106   3.000000000000e+00
    RHS       C0000107   3.000000000000e+00
    RHS       C0000108   3.000000000000e+00
    RHS       C0000109   3.000000000000e+00
    RHS       C0000110   3.000000000000e+00
    RHS       C0000111   3.000000000000e+00
    RHS       C0000112   3.000000000000e+00
    RHS       C0000113   3.000000000000e+00
    RHS       C0000114   3.000000000000e+00
    RHS       C0000115   3.000000000000e+00
    RHS       C0000116   3.000000000000e+00
    RHS       C0000117   3.000000000000e+00
    RHS       C0000118   3.000000000000e+00
    RHS       C0000119   3.000000000000e+00
    RHS       C0000120   3.000000000000e+00
    RHS       C0000121   3.000000000000e+00
    RHS       C0000122   3.000000000000e+00
    RHS       C0000123   3.000000000000e+00
    RHS       C0000124   3.000000000000e+00
    RHS       C0000125   3.000000000000e+00
    RHS       C0000126   3.000000000000e+00
    RHS       C0000127   3.000000000000e+00
    RHS       C0000128   3.000000000000e+00
    RHS       C0000129   3.000000000000e+00
    RHS       C0000130   3.000000000000e+00
    RHS       C0000131   3.000000000000e+00
    RHS       C0000132   3.000000000000e+00
    RHS       C0000133   3.000000000000e+00
    RHS       C0000134   3.000000000000e+00
    RHS       C0000135   3.000000000000e+00
    RHS       C0000136   3.000000000000e+00
    RHS       C0000137   3.000000000000e+00
    RHS       C0000138   3.000000000000e+00
    RHS       C0000139   3.000000000000e+00
    RHS       C0000140   3.000000000000e+00
    RHS       C0000141   3.000000000000e+00
    RHS       C0000142   3.000000000000e+00
    RHS       C0000143   3.000000000000e+00
    RHS       C0000144   3.000000000000e+00
    RHS       C0000145   3.000000000000e+00
    RHS       C0000146   3.000000000000e+00
    RHS       C0000147   3.000000000000e+00
    RHS       C0000148   3.000000000000e+00
    RHS       C0000149   3.000000000000e+00
    RHS       C0000150   3.000000000000e+00
    RHS       C0000151   3.000000000000e+00
    RHS       C0000152   3.000000000000e+00
    RHS       C0000153   3.000000000000e+00
    RHS       C0000154   3.000000000000e+00
    RHS       C0000155   3.000000000000e+00
    RHS       C0000156   3.000000000000e+00
    RHS       C0000157   3.000000000000e+00
    RHS       C0000158   3.000000000000e+00
    RHS       C0000159   3.000000000000e+00
    RHS       C0000160   3.000000000000e+00
    RHS       C0000161   3.000000000000e+00
    RHS       C0000162   3.000000000000e+00
    RHS       C0000163   3.000000000000e+00
    RHS       C0000164   3.000000000000e+00
    RHS       C0000165   3.000000000000e+00
    RHS       C0000166   3.000000000000e+00
    RHS       C0000167   3.000000000000e+00
    RHS       C0000168   3.000000000000e+00
    RHS       C0000169   3.000000000000e+00
    RHS       C0000170   3.000000000000e+00
    RHS       C0000171   3.000000000000e+00
    RHS       C0000172   3.000000000000e+00
    RHS       C0000173   3.000000000000e+00
    RHS       C0000174   3.000000000000e+00
    RHS       C0000175   3.000000000000e+00
    RHS       C0000176   3.000000000000e+00
    RHS       C0000177   3.000000000000e+00
    RHS       C0000178   3.000000000000e+00
    RHS       C0000179   3.000000000000e+00
    RHS       C0000180   3.000000000000e+00
    RHS       C0000181   3.000000000000e+00
    RHS       C0000182   3.000000000000e+00
    RHS       C0000183   3.000000000000e+00
    RHS       C0000184   3.000000000000e+00
    RHS       C0000185   3.000000000000e+00
    RHS       C0000186   3.000000000000e+00
    RHS       C0000187   3.000000000000e+00
    RHS       C0000188   3.000000000000e+00
    RHS       C0000189   3.000000000000e+00
    RHS       C0000190   3.000000000000e+00
    RHS       C0000191   3.000000000000e+00
    RHS       C0000192   3.000000000000e+00
    RHS       C0000193   3.000000000000e+00
    RHS       C0000194   3.000000000000e+00
    RHS       C0000195   3.000000000000e+00
    RHS       C0000196   3.000000000000e+00
    RHS       C0000197   3.000000000000e+00
    RHS       C0000198   3.000000000000e+00
    RHS       C0000199   3.000000000000e+00
    RHS       C0000200   3.000000000000e+00
    RHS       C0000201   3.000000000000e+00
    RHS       C0000202   3.000000000000e+00
    RHS       C0000203   3.000000000000e+00
    RHS       C0000204   3.000000000000e+00
    RHS       C0000205   3.000000000000e+00
    RHS       C0000206   3.000000000000e+00
    RHS       C0000207   3.000000000000e+00
    RHS       C0000208   3.000000000000e+00
    RHS       C0000209   3.000000000000e+00
    RHS       C0000210   3.000000000000e+00
    RHS       C0000211   3.000000000000e+00
    RHS       C0000212   3.000000000000e+00
    RHS       C0000213   3.000000000000e+00
    RHS       C0000214   3.000000000000e+00
    RHS       C0000215   3.000000000000e+00
    RHS       C0000216   3.000000000000e+00
    RHS       C0000217   3.000000000000e+00
    RHS       C0000218   3.000000000000e+00
    RHS       C0000219   3.000000000000e+00
    RHS       C0000220   3.000000000000e+00
    RHS       C0000221   3.000000000000e+00
    RHS       C0000222   3.000000000000e+00
    RHS       C0000223   3.000000000000e+00
    RHS       C0000224   3.000000000000e+00
    RHS       C0000225   3.000000000000e+00
    RHS       C0000226   3.000000000000e+00
    RHS       C0000227   3.000000000000e+00
    RHS       C0000228   3.000000000000e+00
    RHS       C0000229   3.000000000000e+00
    RHS       C0000230   3.000000000000e+00
    RHS       C0000231   3.000000000000e+00
    RHS       C0000232   3.000000000000e+00
    RHS       C0000233   3.000000000000e+00
    RHS       C0000234   3.000000000000e+00
    RHS       C0000235   3.000000000000e+00
    RHS       C0000236   3.000000000000e+00
    RHS       C0000237   3.000000000000e+00
    RHS       C0000238   3.000000000000e+00
    RHS       C0000239   3.000000000000e+00
    RHS       C0000240   3.000000000000e+00
    RHS       C0000241   3.000000000000e+00
    RHS       C0000242   3.000000000000e+00
    RHS       C0000243   3.000000000000e+00
    RHS       C0000244   3.000000000000e+00
    RHS       C0000245   3.000000000000e+00
    RHS       C0000246   3.000000000000e+00
    RHS       C0000247   3.000000000000e+00
    RHS       C0000248   3.000000000000e+00
    RHS       C0000249   3.000000000000e+00
    RHS       C0000250   3.000000000000e+00
    RHS       C0000251   3.000000000000e+00
    RHS       C0000252   3.000000000000e+00
    RHS       C0000253   3.000000000000e+00
    RHS       C0000254   3.000000000000e+00
    RHS       C0000255   3.000000000000e+00
    RHS       C0000256   3.000000000000e+00
    RHS       C0000257   3.000000000000e+00
    RHS       C0000258   3.000000000000e+00
    RHS       C0000259   3.000000000000e+00
    RHS       C0000260   3.000000000000e+00
    RHS       C0000261   3.000000000000e+00
    RHS       C0000262   3.000000000000e+00
    RHS       C0000263   3.000000000000e+00
    RHS       C0000264   3.000000000000e+00
    RHS       C0000265   3.000000000000e+00
    RHS       C0000266   3.000000000000e+00
    RHS       C0000267   3.000000000000e+00
    RHS       C0000268   3.000000000000e+00
    RHS       C0000269   3.000000000000e+00
    RHS       C0000270   3.000000000000e+00
    RHS       C0000271   3.000000000000e+00
    RHS       C0000272   3.000000000000e+00
    RHS       C0000273   3.000000000000e+00
    RHS       C0000274   3.000000000000e+00
    RHS       C0000275   3.000000000000e+00
    RHS       C0000276   3.000000000000e+00
    RHS       C0000277   3.000000000000e+00
    RHS       C0000278   3.000000000000e+00
    RHS       C0000279   3.000000000000e+00
    RHS       C0000280   3.000000000000e+00
    RHS       C0000281   3.000000000000e+00
    RHS       C0000282   3.000000000000e+00
    RHS       C0000283   3.000000000000e+00
    RHS       C0000284   3.000000000000e+00
    RHS       C0000285   3.000000000000e+00
    RHS       C0000286   3.000000000000e+00
    RHS       C0000287   3.000000000000e+00
    RHS       C0000288   3.000000000000e+00
    RHS       C0000289   3.000000000000e+00
    RHS       C0000290   3.000000000000e+00
    RHS       C0000291   3.000000000000e+00
    RHS       C0000292   3.000000000000e+00
    RHS       C0000293   3.000000000000e+00
    RHS       C0000294   3.000000000000e+00
    RHS       C0000295   3.000000000000e+00
    RHS       C0000296   3.000000000000e+00
    RHS       C0000297   3.000000000000e+00
    RHS       C0000298   3.000000000000e+00
    RHS       C0000299   3.000000000000e+00
    RHS       C0000300   3.000000000000e+00
    RHS       C0000301   3.000000000000e+00
    RHS       C0000302   3.000000000000e+00
    RHS       C0000303   3.000000000000e+00
    RHS       C0000304   3.000000000000e+00
    RHS       C0000305   3.000000000000e+00
    RHS       C0000306   3.000000000000e+00
    RHS       C0000307   3.000000000000e+00
    RHS       C0000308   3.000000000000e+00
    RHS       C0000309   3.000000000000e+00
    RHS       C0000310   3.000000000000e+00
    RHS       C0000311   3.000000000000e+00
    RHS       C0000312   3.000000000000e+00
    RHS       C0000313   3.000000000000e+00
    RHS       C0000314   3.000000000000e+00
    RHS       C0000315   3.000000000000e+00
    RHS       C0000316   3.000000000000e+00
    RHS       C0000317   3.000000000000e+00
    RHS       C0000318   3.000000000000e+00
    RHS       C0000319   3.000000000000e+00
    RHS       C0000320   3.000000000000e+00
    RHS       C0000321   3.000000000000e+00
    RHS       C0000322   3.000000000000e+00
    RHS       C0000323   3.000000000000e+00
    RHS       C0000324   3.000000000000e+00
    RHS       C0000325   3.000000000000e+00
    RHS       C0000326   3.000000000000e+00
    RHS       C0000327   3.000000000000e+00
    RHS       C0000328   3.000000000000e+00
    RHS       C0000329   3.000000000000e+00
    RHS       C0000330   3.000000000000e+00
    RHS       C0000331   3.000000000000e+00
    RHS       C0000332   3.000000000000e+00
    RHS       C0000333   3.000000000000e+00
    RHS       C0000334   3.000000000000e+00
    RHS       C0000335   3.000000000000e+00
    RHS       C0000336   3.000000000000e+00
    RHS       C0000337   3.000000000000e+00
    RHS       C0000338   3.000000000000e+00
    RHS       C0000339   3.000000000000e+00
    RHS       C0000340   3.000000000000e+00
    RHS       C0000341   3.000000000000e+00
    RHS       C0000342   3.000000000000e+00
    RHS       C0000343   3.000000000000e+00
    RHS       C0000344   3.000000000000e+00
    RHS       C0000345   3.000000000000e+00
    RHS       C0000346   3.000000000000e+00
    RHS       C0000347   3.000000000000e+00
    RHS       C0000348   3.000000000000e+00
    RHS       C0000349   3.000000000000e+00
    RHS       C0000350   3.000000000000e+00
    RHS       C0000351   3.000000000000e+00
    RHS       C0000352   3.000000000000e+00
    RHS       C0000353   3.000000000000e+00
    RHS       C0000354   3.000000000000e+00
    RHS       C0000355   3.000000000000e+00
    RHS       C0000356   3.000000000000e+00
    RHS       C0000357   3.000000000000e+00
    RHS       C0000358   3.000000000000e+00
    RHS       C0000359   3.000000000000e+00
    RHS       C0000360   3.000000000000e+00
    RHS       C0000361   3.000000000000e+00
    RHS       C0000362   3.000000000000e+00
    RHS       C0000363   3.000000000000e+00
    RHS       C0000364   3.000000000000e+00
    RHS       C0000365   3.000000000000e+00
    RHS       C0000366   3.000000000000e+00
    RHS       C0000367   3.000000000000e+00
    RHS       C0000368   3.000000000000e+00
    RHS       C0000369   3.000000000000e+00
    RHS       C0000370   3.000000000000e+00
    RHS       C0000371   3.000000000000e+00
    RHS       C0000372   3.000000000000e+00
    RHS       C0000373   3.000000000000e+00
    RHS       C0000374   3.000000000000e+00
    RHS       C0000375   3.000000000000e+00
    RHS       C0000376   3.000000000000e+00
    RHS       C0000377   3.000000000000e+00
    RHS       C0000378   3.000000000000e+00
BOUNDS
 FR BND       X0000000
 FR BND       X0000001
ENDATA
